157671
0 71 46 42 102 103 104 105 123 55 70 50 58 69 21 24 25 37 36 32 51 45 117 119 80 81 94 121 120 122 113 111 110 35 93 92 89 88 107 108 64 109 106 73 112 31 34 38 30 68 67 95 63 83 79 78 96 17 15 72 14 10 16 7 6 9 18 97 87 19 27 26 28 23 20 29 33 22 49 47 62 48 82 54 52 60 100 74 3 4 1 2 99 11 66 8 124 125 91 98 101 86 65 77 126 5 90 53 75 13 12 61 56 85 76 84 57 39 40 59 43 41 44 118 116 114 115 
